c Reduced graph for GEOM90_0 generated by Cyril Grelier
p edge 87 425
e 1 2
e 1 3
e 1 4
e 1 5
e 1 11
e 1 12
e 1 15
e 1 17
e 1 20
e 1 21
e 1 24
e 1 30
e 1 43
e 1 64
e 1 71
e 2 3
e 2 4
e 2 15
e 2 17
e 2 20
e 2 21
e 2 25
e 2 31
e 2 33
e 2 38
e 2 40
e 2 44
e 2 46
e 2 49
e 3 4
e 3 15
e 3 17
e 3 20
e 3 21
e 3 25
e 3 28
e 3 31
e 3 33
e 3 40
e 3 44
e 3 46
e 3 49
e 4 5
e 4 12
e 4 15
e 4 17
e 4 20
e 4 21
e 4 24
e 4 28
e 4 30
e 4 39
e 4 54
e 4 74
e 5 7
e 5 11
e 5 12
e 5 13
e 5 21
e 5 24
e 5 30
e 5 32
e 5 43
e 5 55
e 5 64
e 5 71
e 6 7
e 6 8
e 6 9
e 6 10
e 6 13
e 6 14
e 6 16
e 6 18
e 6 19
e 6 22
e 6 23
e 6 32
e 6 37
e 6 43
e 7 8
e 7 11
e 7 12
e 7 13
e 7 14
e 7 22
e 7 24
e 7 30
e 7 32
e 7 43
e 7 55
e 7 64
e 8 9
e 8 10
e 8 13
e 8 14
e 8 16
e 8 18
e 8 19
e 8 22
e 8 23
e 8 32
e 8 37
e 8 81
e 9 10
e 9 13
e 9 14
e 9 16
e 9 18
e 9 22
e 9 23
e 9 27
e 9 35
e 9 47
e 9 51
e 9 81
e 10 16
e 10 18
e 10 22
e 10 27
e 10 35
e 10 47
e 10 51
e 10 66
e 10 68
e 10 80
e 10 81
e 11 12
e 11 13
e 11 14
e 11 22
e 11 24
e 11 30
e 11 32
e 11 43
e 11 55
e 11 64
e 12 13
e 12 21
e 12 24
e 12 30
e 12 43
e 12 54
e 12 55
e 12 74
e 13 22
e 13 24
e 13 27
e 13 30
e 13 55
e 13 81
e 14 16
e 14 19
e 14 22
e 14 23
e 14 32
e 14 37
e 14 43
e 14 64
e 15 17
e 15 20
e 15 21
e 15 28
e 15 33
e 15 39
e 15 54
e 15 65
e 15 83
e 16 18
e 16 19
e 16 23
e 16 34
e 16 35
e 16 37
e 16 59
e 16 80
e 17 20
e 17 21
e 17 28
e 17 33
e 17 39
e 17 65
e 17 83
e 18 19
e 18 23
e 18 34
e 18 35
e 18 37
e 18 59
e 18 80
e 19 23
e 19 34
e 19 35
e 19 37
e 19 41
e 19 59
e 19 80
e 20 21
e 20 25
e 20 28
e 20 33
e 20 39
e 20 65
e 21 25
e 21 28
e 21 39
e 22 24
e 22 27
e 22 32
e 22 81
e 23 34
e 23 35
e 23 37
e 23 41
e 23 59
e 24 30
e 24 54
e 24 55
e 24 74
e 25 31
e 25 33
e 25 38
e 25 40
e 25 44
e 25 46
e 25 49
e 25 58
e 26 50
e 26 56
e 26 60
e 26 62
e 26 63
e 26 69
e 26 70
e 26 72
e 26 75
e 26 77
e 26 82
e 26 85
e 27 47
e 27 51
e 27 66
e 27 68
e 27 78
e 27 79
e 27 81
e 28 33
e 28 39
e 28 54
e 28 65
e 28 83
e 29 36
e 29 41
e 29 42
e 29 45
e 29 50
e 29 52
e 29 53
e 29 57
e 29 62
e 29 70
e 29 75
e 30 54
e 30 55
e 30 74
e 31 38
e 31 40
e 31 44
e 31 46
e 31 49
e 31 58
e 31 61
e 31 71
e 32 37
e 32 43
e 32 64
e 32 71
e 33 40
e 33 44
e 33 65
e 34 37
e 34 41
e 34 42
e 34 52
e 34 57
e 34 59
e 35 47
e 35 51
e 35 59
e 35 80
e 36 42
e 36 45
e 36 48
e 36 52
e 36 53
e 36 57
e 36 84
e 36 86
e 36 87
e 37 41
e 38 40
e 38 44
e 38 46
e 38 49
e 38 58
e 38 61
e 38 71
e 39 54
e 39 65
e 39 74
e 39 83
e 40 44
e 40 46
e 40 49
e 40 58
e 41 42
e 41 50
e 41 52
e 41 57
e 41 62
e 42 45
e 42 48
e 42 52
e 42 53
e 42 57
e 42 59
e 43 64
e 43 71
e 44 46
e 44 49
e 44 58
e 45 48
e 45 52
e 45 53
e 45 57
e 45 84
e 45 86
e 45 87
e 46 49
e 46 58
e 46 61
e 47 51
e 47 66
e 47 68
e 47 78
e 47 79
e 48 52
e 48 53
e 48 57
e 48 84
e 48 86
e 48 87
e 49 58
e 50 62
e 50 69
e 50 70
e 50 75
e 50 82
e 50 85
e 51 66
e 51 68
e 51 78
e 51 79
e 52 53
e 52 57
e 53 57
e 53 70
e 53 75
e 54 55
e 54 74
e 55 74
e 56 60
e 56 63
e 56 67
e 56 69
e 56 72
e 56 73
e 56 76
e 56 77
e 58 61
e 58 67
e 59 80
e 60 63
e 60 67
e 60 72
e 60 73
e 60 76
e 60 77
e 61 67
e 61 73
e 61 82
e 61 85
e 62 70
e 62 75
e 62 82
e 62 85
e 63 69
e 63 72
e 63 73
e 63 76
e 63 77
e 64 71
e 65 83
e 66 68
e 66 78
e 66 79
e 67 73
e 67 76
e 67 82
e 68 78
e 68 79
e 69 70
e 69 75
e 69 77
e 70 75
e 72 73
e 72 76
e 72 77
e 73 76
e 76 77
e 78 79
e 82 85
e 84 86
e 84 87
e 86 87
